Route #1: 726 606 394 377 386 788 655 449 144 
Route #2: 667 673 254 703 625 729 51 796 866 
Route #3: 854 927 68 516 819 281 800 634 632 
Route #4: 14 61 101 845 106 82 173 610 247 
Route #5: 650 129 114 658 505 112 471 613 267 
Route #6: 486 487 802 695 201 320 706 541 110 
Route #7: 89 319 70 116 611 787 202 621 537 
Route #8: 970 911 141 559 743 877 
Route #9: 74 142 540 713 283 712 278 407 
Route #10: 775 893 239 384 501 253 459 790 751 
Route #11: 299 873 630 607 182 834 77 569 710 445 626 
Route #12: 527 697 461 455 721 898 844 753 687 478 
Route #13: 489 411 718 517 651 302 762 664 915 264 117 26 
Route #14: 213 932 532 770 547 586 122 
Distance: 30025
Prizes: 44120
